; benchmark generated from python API
(set-info :status unknown)
(declare-fun cell_1_1 () Int)
(declare-fun cell_1_6 () Int)
(declare-fun cell_2_3 () Int)
(declare-fun cell_2_4 () Int)
(declare-fun cell_3_7 () Int)
(declare-fun cell_3_8 () Int)
(declare-fun cell_4_2 () Int)
(declare-fun cell_4_9 () Int)
(declare-fun cell_5_4 () Int)
(declare-fun cell_5_5 () Int)
(declare-fun cell_6_3 () Int)
(declare-fun cell_6_8 () Int)
(declare-fun cell_7_6 () Int)
(declare-fun cell_7_9 () Int)
(declare-fun cell_8_5 () Int)
(declare-fun cell_9_1 () Int)
(declare-fun cell_2_1 () Int)
(declare-fun cell_3_1 () Int)
(declare-fun cell_4_1 () Int)
(declare-fun cell_5_1 () Int)
(declare-fun cell_6_1 () Int)
(declare-fun cell_7_1 () Int)
(declare-fun cell_8_1 () Int)
(declare-fun cell_1_2 () Int)
(declare-fun cell_2_2 () Int)
(declare-fun cell_3_2 () Int)
(declare-fun cell_5_2 () Int)
(declare-fun cell_6_2 () Int)
(declare-fun cell_7_2 () Int)
(declare-fun cell_8_2 () Int)
(declare-fun cell_9_2 () Int)
(declare-fun cell_1_3 () Int)
(declare-fun cell_3_3 () Int)
(declare-fun cell_4_3 () Int)
(declare-fun cell_5_3 () Int)
(declare-fun cell_7_3 () Int)
(declare-fun cell_8_3 () Int)
(declare-fun cell_9_3 () Int)
(declare-fun cell_1_4 () Int)
(declare-fun cell_3_4 () Int)
(declare-fun cell_4_4 () Int)
(declare-fun cell_6_4 () Int)
(declare-fun cell_7_4 () Int)
(declare-fun cell_8_4 () Int)
(declare-fun cell_9_4 () Int)
(declare-fun cell_1_5 () Int)
(declare-fun cell_2_5 () Int)
(declare-fun cell_3_5 () Int)
(declare-fun cell_4_5 () Int)
(declare-fun cell_6_5 () Int)
(declare-fun cell_7_5 () Int)
(declare-fun cell_9_5 () Int)
(declare-fun cell_2_6 () Int)
(declare-fun cell_3_6 () Int)
(declare-fun cell_4_6 () Int)
(declare-fun cell_5_6 () Int)
(declare-fun cell_6_6 () Int)
(declare-fun cell_8_6 () Int)
(declare-fun cell_9_6 () Int)
(declare-fun cell_1_7 () Int)
(declare-fun cell_2_7 () Int)
(declare-fun cell_4_7 () Int)
(declare-fun cell_5_7 () Int)
(declare-fun cell_6_7 () Int)
(declare-fun cell_7_7 () Int)
(declare-fun cell_8_7 () Int)
(declare-fun cell_9_7 () Int)
(declare-fun cell_1_8 () Int)
(declare-fun cell_2_8 () Int)
(declare-fun cell_4_8 () Int)
(declare-fun cell_5_8 () Int)
(declare-fun cell_7_8 () Int)
(declare-fun cell_8_8 () Int)
(declare-fun cell_9_8 () Int)
(declare-fun cell_1_9 () Int)
(declare-fun cell_2_9 () Int)
(declare-fun cell_3_9 () Int)
(declare-fun cell_5_9 () Int)
(declare-fun cell_6_9 () Int)
(declare-fun cell_8_9 () Int)
(declare-fun cell_9_9 () Int)
(assert
 (= cell_1_1 2))
(assert
 (= cell_1_6 1))
(assert
 (= cell_2_3 1))
(assert
 (= cell_2_4 2))
(assert
 (= cell_3_7 1))
(assert
 (= cell_3_8 2))
(assert
 (= cell_4_2 1))
(assert
 (= cell_4_9 2))
(assert
 (= cell_5_4 1))
(assert
 (= cell_5_5 2))
(assert
 (= cell_6_3 2))
(assert
 (= cell_6_8 1))
(assert
 (= cell_7_6 2))
(assert
 (= cell_7_9 1))
(assert
 (= cell_8_5 1))
(assert
 (= cell_9_1 1))
(assert
 (let (($x273 (= cell_1_1 2)))
 (or (= cell_1_1 1) $x273 (= cell_1_1 3) (= cell_1_1 4) (= cell_1_1 5) (= cell_1_1 6) (= cell_1_1 7) (= cell_1_1 8) (= cell_1_1 9))))
(assert
 (let (($x9310 (= cell_2_1 9)))
 (let (($x9332 (= cell_2_1 8)))
 (let (($x318 (= cell_2_1 7)))
 (let (($x6439 (= cell_2_1 6)))
 (let (($x9960 (= cell_2_1 5)))
 (let (($x9294 (= cell_2_1 4)))
 (let (($x8934 (= cell_2_1 3)))
 (let (($x1412 (= cell_2_1 2)))
 (let (($x7388 (= cell_2_1 1)))
 (or $x7388 $x1412 $x8934 $x9294 $x9960 $x6439 $x318 $x9332 $x9310)))))))))))
(assert
 (let (($x1181 (= cell_3_1 9)))
 (let (($x2103 (= cell_3_1 8)))
 (let (($x9054 (= cell_3_1 7)))
 (let (($x1449 (= cell_3_1 6)))
 (let (($x8703 (= cell_3_1 5)))
 (let (($x1183 (= cell_3_1 4)))
 (let (($x4007 (= cell_3_1 3)))
 (let (($x5291 (= cell_3_1 2)))
 (let (($x6892 (= cell_3_1 1)))
 (or $x6892 $x5291 $x4007 $x1183 $x8703 $x1449 $x9054 $x2103 $x1181)))))))))))
(assert
 (let (($x8276 (= cell_4_1 9)))
 (let (($x2521 (= cell_4_1 8)))
 (let (($x1593 (= cell_4_1 7)))
 (let (($x9958 (= cell_4_1 6)))
 (let (($x1228 (= cell_4_1 5)))
 (let (($x4332 (= cell_4_1 4)))
 (let (($x3735 (= cell_4_1 3)))
 (let (($x6803 (= cell_4_1 2)))
 (let (($x1472 (= cell_4_1 1)))
 (or $x1472 $x6803 $x3735 $x4332 $x1228 $x9958 $x1593 $x2521 $x8276)))))))))))
(assert
 (let (($x3076 (= cell_5_1 9)))
 (let (($x6728 (= cell_5_1 8)))
 (let (($x5248 (= cell_5_1 7)))
 (let (($x2431 (= cell_5_1 6)))
 (let (($x3814 (= cell_5_1 5)))
 (let (($x4327 (= cell_5_1 4)))
 (let (($x7970 (= cell_5_1 3)))
 (let (($x5327 (= cell_5_1 2)))
 (let (($x773 (= cell_5_1 1)))
 (or $x773 $x5327 $x7970 $x4327 $x3814 $x2431 $x5248 $x6728 $x3076)))))))))))
(assert
 (let (($x8874 (= cell_6_1 9)))
 (let (($x84 (= cell_6_1 8)))
 (let (($x3715 (= cell_6_1 7)))
 (let (($x5252 (= cell_6_1 6)))
 (let (($x8893 (= cell_6_1 5)))
 (let (($x5919 (= cell_6_1 4)))
 (let (($x1906 (= cell_6_1 3)))
 (let (($x10028 (= cell_6_1 2)))
 (let (($x9076 (= cell_6_1 1)))
 (or $x9076 $x10028 $x1906 $x5919 $x8893 $x5252 $x3715 $x84 $x8874)))))))))))
(assert
 (let (($x5706 (= cell_7_1 9)))
 (let (($x3262 (= cell_7_1 8)))
 (let (($x8919 (= cell_7_1 7)))
 (let (($x5245 (= cell_7_1 6)))
 (let (($x4840 (= cell_7_1 5)))
 (let (($x9693 (= cell_7_1 4)))
 (let (($x4336 (= cell_7_1 3)))
 (let (($x779 (= cell_7_1 2)))
 (let (($x8333 (= cell_7_1 1)))
 (or $x8333 $x779 $x4336 $x9693 $x4840 $x5245 $x8919 $x3262 $x5706)))))))))))
(assert
 (let (($x8730 (= cell_8_1 9)))
 (let (($x9279 (= cell_8_1 8)))
 (let (($x6493 (= cell_8_1 7)))
 (let (($x8458 (= cell_8_1 6)))
 (let (($x785 (= cell_8_1 5)))
 (let (($x8507 (= cell_8_1 4)))
 (let (($x5660 (= cell_8_1 3)))
 (let (($x5683 (= cell_8_1 2)))
 (let (($x8863 (= cell_8_1 1)))
 (or $x8863 $x5683 $x5660 $x8507 $x785 $x8458 $x6493 $x9279 $x8730)))))))))))
(assert
 (let (($x70 (= cell_9_1 1)))
 (or $x70 (= cell_9_1 2) (= cell_9_1 3) (= cell_9_1 4) (= cell_9_1 5) (= cell_9_1 6) (= cell_9_1 7) (= cell_9_1 8) (= cell_9_1 9))))
(assert
 (let (($x4349 (= cell_1_2 9)))
 (let (($x2267 (= cell_1_2 8)))
 (let (($x4056 (= cell_1_2 7)))
 (let (($x672 (= cell_1_2 6)))
 (let (($x5827 (= cell_1_2 5)))
 (let (($x10050 (= cell_1_2 4)))
 (let (($x7136 (= cell_1_2 3)))
 (let (($x2953 (= cell_1_2 2)))
 (let (($x1124 (= cell_1_2 1)))
 (or $x1124 $x2953 $x7136 $x10050 $x5827 $x672 $x4056 $x2267 $x4349)))))))))))
(assert
 (let (($x6232 (= cell_2_2 9)))
 (let (($x9089 (= cell_2_2 8)))
 (let (($x4927 (= cell_2_2 7)))
 (let (($x4642 (= cell_2_2 6)))
 (let (($x3042 (= cell_2_2 5)))
 (let (($x5784 (= cell_2_2 4)))
 (let (($x5228 (= cell_2_2 3)))
 (let (($x8676 (= cell_2_2 2)))
 (let (($x5523 (= cell_2_2 1)))
 (or $x5523 $x8676 $x5228 $x5784 $x3042 $x4642 $x4927 $x9089 $x6232)))))))))))
(assert
 (let (($x5203 (= cell_3_2 9)))
 (let (($x3729 (= cell_3_2 8)))
 (let (($x4197 (= cell_3_2 7)))
 (let (($x9420 (= cell_3_2 6)))
 (let (($x8822 (= cell_3_2 5)))
 (let (($x4972 (= cell_3_2 4)))
 (let (($x3810 (= cell_3_2 3)))
 (let (($x8764 (= cell_3_2 2)))
 (let (($x9431 (= cell_3_2 1)))
 (or $x9431 $x8764 $x3810 $x4972 $x8822 $x9420 $x4197 $x3729 $x5203)))))))))))
(assert
 (let (($x4008 (= cell_4_2 1)))
 (or $x4008 (= cell_4_2 2) (= cell_4_2 3) (= cell_4_2 4) (= cell_4_2 5) (= cell_4_2 6) (= cell_4_2 7) (= cell_4_2 8) (= cell_4_2 9))))
(assert
 (let (($x1030 (= cell_5_2 9)))
 (let (($x7315 (= cell_5_2 8)))
 (let (($x9301 (= cell_5_2 7)))
 (let (($x8660 (= cell_5_2 6)))
 (let (($x6274 (= cell_5_2 5)))
 (let (($x9358 (= cell_5_2 4)))
 (let (($x6958 (= cell_5_2 3)))
 (let (($x2883 (= cell_5_2 2)))
 (let (($x7678 (= cell_5_2 1)))
 (or $x7678 $x2883 $x6958 $x9358 $x6274 $x8660 $x9301 $x7315 $x1030)))))))))))
(assert
 (let (($x3952 (= cell_6_2 9)))
 (let (($x888 (= cell_6_2 8)))
 (let (($x1675 (= cell_6_2 7)))
 (let (($x1523 (= cell_6_2 6)))
 (let (($x1512 (= cell_6_2 5)))
 (let (($x646 (= cell_6_2 4)))
 (let (($x3796 (= cell_6_2 3)))
 (let (($x5862 (= cell_6_2 2)))
 (let (($x8043 (= cell_6_2 1)))
 (or $x8043 $x5862 $x3796 $x646 $x1512 $x1523 $x1675 $x888 $x3952)))))))))))
(assert
 (let (($x9940 (= cell_7_2 9)))
 (let (($x6882 (= cell_7_2 8)))
 (let (($x1907 (= cell_7_2 7)))
 (let (($x1099 (= cell_7_2 6)))
 (let (($x7846 (= cell_7_2 5)))
 (let (($x6887 (= cell_7_2 4)))
 (let (($x275 (= cell_7_2 3)))
 (let (($x6003 (= cell_7_2 2)))
 (let (($x2892 (= cell_7_2 1)))
 (or $x2892 $x6003 $x275 $x6887 $x7846 $x1099 $x1907 $x6882 $x9940)))))))))))
(assert
 (let (($x2677 (= cell_8_2 9)))
 (let (($x9497 (= cell_8_2 8)))
 (let (($x6149 (= cell_8_2 7)))
 (let (($x1441 (= cell_8_2 6)))
 (let (($x2582 (= cell_8_2 5)))
 (let (($x3029 (= cell_8_2 4)))
 (let (($x4252 (= cell_8_2 3)))
 (let (($x6973 (= cell_8_2 2)))
 (let (($x5549 (= cell_8_2 1)))
 (or $x5549 $x6973 $x4252 $x3029 $x2582 $x1441 $x6149 $x9497 $x2677)))))))))))
(assert
 (let (($x807 (= cell_9_2 2)))
 (let (($x6278 (= cell_9_2 1)))
 (or $x6278 $x807 (= cell_9_2 3) (= cell_9_2 4) (= cell_9_2 5) (= cell_9_2 6) (= cell_9_2 7) (= cell_9_2 8) (= cell_9_2 9)))))
(assert
 (let (($x3825 (= cell_1_3 9)))
 (let (($x914 (= cell_1_3 8)))
 (let (($x7268 (= cell_1_3 7)))
 (let (($x1508 (= cell_1_3 6)))
 (let (($x3138 (= cell_1_3 5)))
 (let (($x1861 (= cell_1_3 4)))
 (let (($x4695 (= cell_1_3 3)))
 (let (($x9012 (= cell_1_3 2)))
 (let (($x3967 (= cell_1_3 1)))
 (or $x3967 $x9012 $x4695 $x1861 $x3138 $x1508 $x7268 $x914 $x3825)))))))))))
(assert
 (let (($x5222 (= cell_2_3 1)))
 (or $x5222 (= cell_2_3 2) (= cell_2_3 3) (= cell_2_3 4) (= cell_2_3 5) (= cell_2_3 6) (= cell_2_3 7) (= cell_2_3 8) (= cell_2_3 9))))
(assert
 (let (($x524 (= cell_3_3 9)))
 (let (($x2323 (= cell_3_3 8)))
 (let (($x8168 (= cell_3_3 7)))
 (let (($x8596 (= cell_3_3 6)))
 (let (($x1967 (= cell_3_3 5)))
 (let (($x8144 (= cell_3_3 4)))
 (let (($x3369 (= cell_3_3 3)))
 (let (($x7472 (= cell_3_3 2)))
 (let (($x9102 (= cell_3_3 1)))
 (or $x9102 $x7472 $x3369 $x8144 $x1967 $x8596 $x8168 $x2323 $x524)))))))))))
(assert
 (let (($x5150 (= cell_4_3 9)))
 (let (($x7075 (= cell_4_3 8)))
 (let (($x3349 (= cell_4_3 7)))
 (let (($x2687 (= cell_4_3 6)))
 (let (($x9544 (= cell_4_3 5)))
 (let (($x6782 (= cell_4_3 4)))
 (let (($x5651 (= cell_4_3 3)))
 (let (($x8273 (= cell_4_3 2)))
 (let (($x2964 (= cell_4_3 1)))
 (or $x2964 $x8273 $x5651 $x6782 $x9544 $x2687 $x3349 $x7075 $x5150)))))))))))
(assert
 (let (($x8961 (= cell_5_3 9)))
 (let (($x6586 (= cell_5_3 8)))
 (let (($x9871 (= cell_5_3 7)))
 (let (($x8768 (= cell_5_3 6)))
 (let (($x3081 (= cell_5_3 5)))
 (let (($x4152 (= cell_5_3 4)))
 (let (($x1665 (= cell_5_3 3)))
 (let (($x6422 (= cell_5_3 2)))
 (let (($x9628 (= cell_5_3 1)))
 (or $x9628 $x6422 $x1665 $x4152 $x3081 $x8768 $x9871 $x6586 $x8961)))))))))))
(assert
 (let (($x4775 (= cell_6_3 2)))
 (or (= cell_6_3 1) $x4775 (= cell_6_3 3) (= cell_6_3 4) (= cell_6_3 5) (= cell_6_3 6) (= cell_6_3 7) (= cell_6_3 8) (= cell_6_3 9))))
(assert
 (let (($x1910 (= cell_7_3 9)))
 (let (($x2579 (= cell_7_3 8)))
 (let (($x2248 (= cell_7_3 7)))
 (let (($x3383 (= cell_7_3 6)))
 (let (($x3118 (= cell_7_3 5)))
 (let (($x7141 (= cell_7_3 4)))
 (let (($x9372 (= cell_7_3 3)))
 (let (($x6784 (= cell_7_3 2)))
 (let (($x2279 (= cell_7_3 1)))
 (or $x2279 $x6784 $x9372 $x7141 $x3118 $x3383 $x2248 $x2579 $x1910)))))))))))
(assert
 (let (($x4153 (= cell_8_3 9)))
 (let (($x2481 (= cell_8_3 8)))
 (let (($x6354 (= cell_8_3 7)))
 (let (($x9450 (= cell_8_3 6)))
 (let (($x10218 (= cell_8_3 5)))
 (let (($x5289 (= cell_8_3 4)))
 (let (($x6536 (= cell_8_3 3)))
 (let (($x7000 (= cell_8_3 2)))
 (let (($x2895 (= cell_8_3 1)))
 (or $x2895 $x7000 $x6536 $x5289 $x10218 $x9450 $x6354 $x2481 $x4153)))))))))))
(assert
 (let (($x862 (= cell_9_3 2)))
 (let (($x8579 (= cell_9_3 1)))
 (or $x8579 $x862 (= cell_9_3 3) (= cell_9_3 4) (= cell_9_3 5) (= cell_9_3 6) (= cell_9_3 7) (= cell_9_3 8) (= cell_9_3 9)))))
(assert
 (let (($x2405 (= cell_1_4 9)))
 (let (($x7074 (= cell_1_4 8)))
 (let (($x8902 (= cell_1_4 7)))
 (let (($x8069 (= cell_1_4 6)))
 (let (($x7192 (= cell_1_4 5)))
 (let (($x3478 (= cell_1_4 4)))
 (let (($x7097 (= cell_1_4 3)))
 (let (($x444 (= cell_1_4 2)))
 (let (($x3777 (= cell_1_4 1)))
 (or $x3777 $x444 $x7097 $x3478 $x7192 $x8069 $x8902 $x7074 $x2405)))))))))))
(assert
 (let (($x8129 (= cell_2_4 2)))
 (or (= cell_2_4 1) $x8129 (= cell_2_4 3) (= cell_2_4 4) (= cell_2_4 5) (= cell_2_4 6) (= cell_2_4 7) (= cell_2_4 8) (= cell_2_4 9))))
(assert
 (let (($x6658 (= cell_3_4 9)))
 (let (($x6576 (= cell_3_4 8)))
 (let (($x5503 (= cell_3_4 7)))
 (let (($x7105 (= cell_3_4 6)))
 (let (($x6140 (= cell_3_4 5)))
 (let (($x8795 (= cell_3_4 4)))
 (let (($x6433 (= cell_3_4 3)))
 (let (($x5383 (= cell_3_4 2)))
 (let (($x6487 (= cell_3_4 1)))
 (or $x6487 $x5383 $x6433 $x8795 $x6140 $x7105 $x5503 $x6576 $x6658)))))))))))
(assert
 (let (($x568 (= cell_4_4 9)))
 (let (($x9091 (= cell_4_4 8)))
 (let (($x1747 (= cell_4_4 7)))
 (let (($x5569 (= cell_4_4 6)))
 (let (($x7788 (= cell_4_4 5)))
 (let (($x1223 (= cell_4_4 4)))
 (let (($x2822 (= cell_4_4 3)))
 (let (($x8971 (= cell_4_4 2)))
 (let (($x3877 (= cell_4_4 1)))
 (or $x3877 $x8971 $x2822 $x1223 $x7788 $x5569 $x1747 $x9091 $x568)))))))))))
(assert
 (let (($x1644 (= cell_5_4 1)))
 (or $x1644 (= cell_5_4 2) (= cell_5_4 3) (= cell_5_4 4) (= cell_5_4 5) (= cell_5_4 6) (= cell_5_4 7) (= cell_5_4 8) (= cell_5_4 9))))
(assert
 (let (($x8381 (= cell_6_4 9)))
 (let (($x5099 (= cell_6_4 8)))
 (let (($x1240 (= cell_6_4 7)))
 (let (($x5400 (= cell_6_4 6)))
 (let (($x3290 (= cell_6_4 5)))
 (let (($x3412 (= cell_6_4 4)))
 (let (($x2718 (= cell_6_4 3)))
 (let (($x6729 (= cell_6_4 2)))
 (let (($x3105 (= cell_6_4 1)))
 (or $x3105 $x6729 $x2718 $x3412 $x3290 $x5400 $x1240 $x5099 $x8381)))))))))))
(assert
 (let (($x8110 (= cell_7_4 9)))
 (let (($x1706 (= cell_7_4 8)))
 (let (($x6634 (= cell_7_4 7)))
 (let (($x5434 (= cell_7_4 6)))
 (let (($x3507 (= cell_7_4 5)))
 (let (($x5310 (= cell_7_4 4)))
 (let (($x2057 (= cell_7_4 3)))
 (let (($x7086 (= cell_7_4 2)))
 (let (($x3959 (= cell_7_4 1)))
 (or $x3959 $x7086 $x2057 $x5310 $x3507 $x5434 $x6634 $x1706 $x8110)))))))))))
(assert
 (let (($x6395 (= cell_8_4 9)))
 (let (($x5406 (= cell_8_4 8)))
 (let (($x634 (= cell_8_4 7)))
 (let (($x245 (= cell_8_4 6)))
 (let (($x2516 (= cell_8_4 5)))
 (let (($x6475 (= cell_8_4 4)))
 (let (($x3684 (= cell_8_4 3)))
 (let (($x2633 (= cell_8_4 2)))
 (let (($x7217 (= cell_8_4 1)))
 (or $x7217 $x2633 $x3684 $x6475 $x2516 $x245 $x634 $x5406 $x6395)))))))))))
(assert
 (let (($x5979 (= cell_9_4 2)))
 (let (($x969 (= cell_9_4 1)))
 (or $x969 $x5979 (= cell_9_4 3) (= cell_9_4 4) (= cell_9_4 5) (= cell_9_4 6) (= cell_9_4 7) (= cell_9_4 8) (= cell_9_4 9)))))
(assert
 (let (($x3540 (= cell_1_5 9)))
 (let (($x6587 (= cell_1_5 8)))
 (let (($x1044 (= cell_1_5 7)))
 (let (($x8663 (= cell_1_5 6)))
 (let (($x9663 (= cell_1_5 5)))
 (let (($x5188 (= cell_1_5 4)))
 (let (($x5907 (= cell_1_5 3)))
 (let (($x9727 (= cell_1_5 2)))
 (let (($x2332 (= cell_1_5 1)))
 (or $x2332 $x9727 $x5907 $x5188 $x9663 $x8663 $x1044 $x6587 $x3540)))))))))))
(assert
 (let (($x4654 (= cell_2_5 9)))
 (let (($x8063 (= cell_2_5 8)))
 (let (($x6292 (= cell_2_5 7)))
 (let (($x3392 (= cell_2_5 6)))
 (let (($x9407 (= cell_2_5 5)))
 (let (($x4052 (= cell_2_5 4)))
 (let (($x3737 (= cell_2_5 3)))
 (let (($x298 (= cell_2_5 2)))
 (let (($x4650 (= cell_2_5 1)))
 (or $x4650 $x298 $x3737 $x4052 $x9407 $x3392 $x6292 $x8063 $x4654)))))))))))
(assert
 (let (($x4501 (= cell_3_5 9)))
 (let (($x9119 (= cell_3_5 8)))
 (let (($x6372 (= cell_3_5 7)))
 (let (($x8151 (= cell_3_5 6)))
 (let (($x3220 (= cell_3_5 5)))
 (let (($x9946 (= cell_3_5 4)))
 (let (($x4280 (= cell_3_5 3)))
 (let (($x2659 (= cell_3_5 2)))
 (let (($x4998 (= cell_3_5 1)))
 (or $x4998 $x2659 $x4280 $x9946 $x3220 $x8151 $x6372 $x9119 $x4501)))))))))))
(assert
 (let (($x8042 (= cell_4_5 9)))
 (let (($x8979 (= cell_4_5 8)))
 (let (($x9929 (= cell_4_5 7)))
 (let (($x8655 (= cell_4_5 6)))
 (let (($x3464 (= cell_4_5 5)))
 (let (($x5712 (= cell_4_5 4)))
 (let (($x373 (= cell_4_5 3)))
 (let (($x6466 (= cell_4_5 2)))
 (let (($x7555 (= cell_4_5 1)))
 (or $x7555 $x6466 $x373 $x5712 $x3464 $x8655 $x9929 $x8979 $x8042)))))))))))
(assert
 (let (($x9260 (= cell_5_5 2)))
 (or (= cell_5_5 1) $x9260 (= cell_5_5 3) (= cell_5_5 4) (= cell_5_5 5) (= cell_5_5 6) (= cell_5_5 7) (= cell_5_5 8) (= cell_5_5 9))))
(assert
 (let (($x9656 (= cell_6_5 9)))
 (let (($x7479 (= cell_6_5 8)))
 (let (($x4849 (= cell_6_5 7)))
 (let (($x597 (= cell_6_5 6)))
 (let (($x9120 (= cell_6_5 5)))
 (let (($x6266 (= cell_6_5 4)))
 (let (($x7166 (= cell_6_5 3)))
 (let (($x5592 (= cell_6_5 2)))
 (let (($x2007 (= cell_6_5 1)))
 (or $x2007 $x5592 $x7166 $x6266 $x9120 $x597 $x4849 $x7479 $x9656)))))))))))
(assert
 (let (($x2975 (= cell_7_5 9)))
 (let (($x3293 (= cell_7_5 8)))
 (let (($x9506 (= cell_7_5 7)))
 (let (($x9645 (= cell_7_5 6)))
 (let (($x4478 (= cell_7_5 5)))
 (let (($x2297 (= cell_7_5 4)))
 (let (($x5923 (= cell_7_5 3)))
 (let (($x4622 (= cell_7_5 2)))
 (let (($x8644 (= cell_7_5 1)))
 (or $x8644 $x4622 $x5923 $x2297 $x4478 $x9645 $x9506 $x3293 $x2975)))))))))))
(assert
 (let (($x3133 (= cell_8_5 1)))
 (or $x3133 (= cell_8_5 2) (= cell_8_5 3) (= cell_8_5 4) (= cell_8_5 5) (= cell_8_5 6) (= cell_8_5 7) (= cell_8_5 8) (= cell_8_5 9))))
(assert
 (let (($x5864 (= cell_9_5 2)))
 (let (($x3557 (= cell_9_5 1)))
 (or $x3557 $x5864 (= cell_9_5 3) (= cell_9_5 4) (= cell_9_5 5) (= cell_9_5 6) (= cell_9_5 7) (= cell_9_5 8) (= cell_9_5 9)))))
(assert
 (let (($x5740 (= cell_1_6 1)))
 (or $x5740 (= cell_1_6 2) (= cell_1_6 3) (= cell_1_6 4) (= cell_1_6 5) (= cell_1_6 6) (= cell_1_6 7) (= cell_1_6 8) (= cell_1_6 9))))
(assert
 (let (($x1403 (= cell_2_6 9)))
 (let (($x7754 (= cell_2_6 8)))
 (let (($x1100 (= cell_2_6 7)))
 (let (($x9675 (= cell_2_6 6)))
 (let (($x7689 (= cell_2_6 5)))
 (let (($x7117 (= cell_2_6 4)))
 (let (($x1353 (= cell_2_6 3)))
 (let (($x7548 (= cell_2_6 2)))
 (let (($x1434 (= cell_2_6 1)))
 (or $x1434 $x7548 $x1353 $x7117 $x7689 $x9675 $x1100 $x7754 $x1403)))))))))))
(assert
 (let (($x8699 (= cell_3_6 9)))
 (let (($x2138 (= cell_3_6 8)))
 (let (($x6120 (= cell_3_6 7)))
 (let (($x7089 (= cell_3_6 6)))
 (let (($x5328 (= cell_3_6 5)))
 (let (($x4585 (= cell_3_6 4)))
 (let (($x2901 (= cell_3_6 3)))
 (let (($x7215 (= cell_3_6 2)))
 (let (($x1351 (= cell_3_6 1)))
 (or $x1351 $x7215 $x2901 $x4585 $x5328 $x7089 $x6120 $x2138 $x8699)))))))))))
(assert
 (let (($x8367 (= cell_4_6 9)))
 (let (($x66 (= cell_4_6 8)))
 (let (($x838 (= cell_4_6 7)))
 (let (($x1962 (= cell_4_6 6)))
 (let (($x9508 (= cell_4_6 5)))
 (let (($x8111 (= cell_4_6 4)))
 (let (($x8141 (= cell_4_6 3)))
 (let (($x3770 (= cell_4_6 2)))
 (let (($x4198 (= cell_4_6 1)))
 (or $x4198 $x3770 $x8141 $x8111 $x9508 $x1962 $x838 $x66 $x8367)))))))))))
(assert
 (let (($x6824 (= cell_5_6 9)))
 (let (($x1399 (= cell_5_6 8)))
 (let (($x5037 (= cell_5_6 7)))
 (let (($x1661 (= cell_5_6 6)))
 (let (($x3248 (= cell_5_6 5)))
 (let (($x6998 (= cell_5_6 4)))
 (let (($x5380 (= cell_5_6 3)))
 (let (($x941 (= cell_5_6 2)))
 (let (($x10203 (= cell_5_6 1)))
 (or $x10203 $x941 $x5380 $x6998 $x3248 $x1661 $x5037 $x1399 $x6824)))))))))))
(assert
 (let (($x6926 (= cell_6_6 9)))
 (let (($x6833 (= cell_6_6 8)))
 (let (($x5295 (= cell_6_6 7)))
 (let (($x3280 (= cell_6_6 6)))
 (let (($x6709 (= cell_6_6 5)))
 (let (($x362 (= cell_6_6 4)))
 (let (($x7047 (= cell_6_6 3)))
 (let (($x3532 (= cell_6_6 2)))
 (let (($x1238 (= cell_6_6 1)))
 (or $x1238 $x3532 $x7047 $x362 $x6709 $x3280 $x5295 $x6833 $x6926)))))))))))
(assert
 (let (($x7675 (= cell_7_6 2)))
 (or (= cell_7_6 1) $x7675 (= cell_7_6 3) (= cell_7_6 4) (= cell_7_6 5) (= cell_7_6 6) (= cell_7_6 7) (= cell_7_6 8) (= cell_7_6 9))))
(assert
 (let (($x6117 (= cell_8_6 2)))
 (let (($x3576 (= cell_8_6 1)))
 (or $x3576 $x6117 (= cell_8_6 3) (= cell_8_6 4) (= cell_8_6 5) (= cell_8_6 6) (= cell_8_6 7) (= cell_8_6 8) (= cell_8_6 9)))))
(assert
 (let (($x9464 (= cell_9_6 2)))
 (let (($x2581 (= cell_9_6 1)))
 (or $x2581 $x9464 (= cell_9_6 3) (= cell_9_6 4) (= cell_9_6 5) (= cell_9_6 6) (= cell_9_6 7) (= cell_9_6 8) (= cell_9_6 9)))))
(assert
 (let (($x3310 (= cell_1_7 9)))
 (let (($x1249 (= cell_1_7 8)))
 (let (($x4529 (= cell_1_7 7)))
 (let (($x2941 (= cell_1_7 6)))
 (let (($x6040 (= cell_1_7 5)))
 (let (($x5498 (= cell_1_7 4)))
 (let (($x8315 (= cell_1_7 3)))
 (let (($x1467 (= cell_1_7 2)))
 (let (($x8561 (= cell_1_7 1)))
 (or $x8561 $x1467 $x8315 $x5498 $x6040 $x2941 $x4529 $x1249 $x3310)))))))))))
(assert
 (let (($x875 (= cell_2_7 9)))
 (let (($x33 (= cell_2_7 8)))
 (let (($x5315 (= cell_2_7 7)))
 (let (($x168 (= cell_2_7 6)))
 (let (($x2123 (= cell_2_7 5)))
 (let (($x9804 (= cell_2_7 4)))
 (let (($x8172 (= cell_2_7 3)))
 (let (($x5631 (= cell_2_7 2)))
 (let (($x7408 (= cell_2_7 1)))
 (or $x7408 $x5631 $x8172 $x9804 $x2123 $x168 $x5315 $x33 $x875)))))))))))
(assert
 (let (($x5965 (= cell_3_7 1)))
 (or $x5965 (= cell_3_7 2) (= cell_3_7 3) (= cell_3_7 4) (= cell_3_7 5) (= cell_3_7 6) (= cell_3_7 7) (= cell_3_7 8) (= cell_3_7 9))))
(assert
 (let (($x2205 (= cell_4_7 9)))
 (let (($x2820 (= cell_4_7 8)))
 (let (($x6151 (= cell_4_7 7)))
 (let (($x4798 (= cell_4_7 6)))
 (let (($x8062 (= cell_4_7 5)))
 (let (($x9021 (= cell_4_7 4)))
 (let (($x1898 (= cell_4_7 3)))
 (let (($x439 (= cell_4_7 2)))
 (let (($x5263 (= cell_4_7 1)))
 (or $x5263 $x439 $x1898 $x9021 $x8062 $x4798 $x6151 $x2820 $x2205)))))))))))
(assert
 (let (($x3266 (= cell_5_7 9)))
 (let (($x1781 (= cell_5_7 8)))
 (let (($x530 (= cell_5_7 7)))
 (let (($x380 (= cell_5_7 6)))
 (let (($x4994 (= cell_5_7 5)))
 (let (($x3784 (= cell_5_7 4)))
 (let (($x8242 (= cell_5_7 3)))
 (let (($x1220 (= cell_5_7 2)))
 (let (($x4274 (= cell_5_7 1)))
 (or $x4274 $x1220 $x8242 $x3784 $x4994 $x380 $x530 $x1781 $x3266)))))))))))
(assert
 (let (($x5024 (= cell_6_7 9)))
 (let (($x7794 (= cell_6_7 8)))
 (let (($x4127 (= cell_6_7 7)))
 (let (($x714 (= cell_6_7 6)))
 (let (($x7838 (= cell_6_7 5)))
 (let (($x517 (= cell_6_7 4)))
 (let (($x3934 (= cell_6_7 3)))
 (let (($x5780 (= cell_6_7 2)))
 (let (($x1395 (= cell_6_7 1)))
 (or $x1395 $x5780 $x3934 $x517 $x7838 $x714 $x4127 $x7794 $x5024)))))))))))
(assert
 (let (($x7858 (= cell_7_7 9)))
 (let (($x2989 (= cell_7_7 8)))
 (let (($x5891 (= cell_7_7 7)))
 (let (($x65 (= cell_7_7 6)))
 (let (($x5901 (= cell_7_7 5)))
 (let (($x3591 (= cell_7_7 4)))
 (let (($x2624 (= cell_7_7 3)))
 (let (($x6276 (= cell_7_7 2)))
 (let (($x7595 (= cell_7_7 1)))
 (or $x7595 $x6276 $x2624 $x3591 $x5901 $x65 $x5891 $x2989 $x7858)))))))))))
(assert
 (let (($x1242 (= cell_8_7 2)))
 (let (($x58 (= cell_8_7 1)))
 (or $x58 $x1242 (= cell_8_7 3) (= cell_8_7 4) (= cell_8_7 5) (= cell_8_7 6) (= cell_8_7 7) (= cell_8_7 8) (= cell_8_7 9)))))
(assert
 (let (($x4450 (= cell_9_7 1)))
 (or $x4450 (= cell_9_7 2) (= cell_9_7 3) (= cell_9_7 4) (= cell_9_7 5) (= cell_9_7 6) (= cell_9_7 7) (= cell_9_7 8) (= cell_9_7 9))))
(assert
 (let (($x8039 (= cell_1_8 9)))
 (let (($x4250 (= cell_1_8 8)))
 (let (($x767 (= cell_1_8 7)))
 (let (($x9595 (= cell_1_8 6)))
 (let (($x8294 (= cell_1_8 5)))
 (let (($x4909 (= cell_1_8 4)))
 (let (($x3903 (= cell_1_8 3)))
 (let (($x8872 (= cell_1_8 2)))
 (let (($x3329 (= cell_1_8 1)))
 (or $x3329 $x8872 $x3903 $x4909 $x8294 $x9595 $x767 $x4250 $x8039)))))))))))
(assert
 (let (($x2114 (= cell_2_8 9)))
 (let (($x9948 (= cell_2_8 8)))
 (let (($x3219 (= cell_2_8 7)))
 (let (($x1837 (= cell_2_8 6)))
 (let (($x10233 (= cell_2_8 5)))
 (let (($x9671 (= cell_2_8 4)))
 (let (($x8700 (= cell_2_8 3)))
 (let (($x1657 (= cell_2_8 2)))
 (let (($x7687 (= cell_2_8 1)))
 (or $x7687 $x1657 $x8700 $x9671 $x10233 $x1837 $x3219 $x9948 $x2114)))))))))))
(assert
 (let (($x1944 (= cell_3_8 2)))
 (or (= cell_3_8 1) $x1944 (= cell_3_8 3) (= cell_3_8 4) (= cell_3_8 5) (= cell_3_8 6) (= cell_3_8 7) (= cell_3_8 8) (= cell_3_8 9))))
(assert
 (let (($x1461 (= cell_4_8 9)))
 (let (($x9193 (= cell_4_8 8)))
 (let (($x6181 (= cell_4_8 7)))
 (let (($x4583 (= cell_4_8 6)))
 (let (($x8327 (= cell_4_8 5)))
 (let (($x5815 (= cell_4_8 4)))
 (let (($x9172 (= cell_4_8 3)))
 (let (($x6641 (= cell_4_8 2)))
 (let (($x8834 (= cell_4_8 1)))
 (or $x8834 $x6641 $x9172 $x5815 $x8327 $x4583 $x6181 $x9193 $x1461)))))))))))
(assert
 (let (($x5133 (= cell_5_8 9)))
 (let (($x4881 (= cell_5_8 8)))
 (let (($x6786 (= cell_5_8 7)))
 (let (($x7553 (= cell_5_8 6)))
 (let (($x1379 (= cell_5_8 5)))
 (let (($x1745 (= cell_5_8 4)))
 (let (($x2835 (= cell_5_8 3)))
 (let (($x1234 (= cell_5_8 2)))
 (let (($x5329 (= cell_5_8 1)))
 (or $x5329 $x1234 $x2835 $x1745 $x1379 $x7553 $x6786 $x4881 $x5133)))))))))))
(assert
 (let (($x7466 (= cell_6_8 1)))
 (or $x7466 (= cell_6_8 2) (= cell_6_8 3) (= cell_6_8 4) (= cell_6_8 5) (= cell_6_8 6) (= cell_6_8 7) (= cell_6_8 8) (= cell_6_8 9))))
(assert
 (let (($x2783 (= cell_7_8 9)))
 (let (($x169 (= cell_7_8 8)))
 (let (($x9607 (= cell_7_8 7)))
 (let (($x9328 (= cell_7_8 6)))
 (let (($x6976 (= cell_7_8 5)))
 (let (($x2504 (= cell_7_8 4)))
 (let (($x6509 (= cell_7_8 3)))
 (let (($x9679 (= cell_7_8 2)))
 (let (($x622 (= cell_7_8 1)))
 (or $x622 $x9679 $x6509 $x2504 $x6976 $x9328 $x9607 $x169 $x2783)))))))))))
(assert
 (let (($x6387 (= cell_8_8 2)))
 (let (($x4901 (= cell_8_8 1)))
 (or $x4901 $x6387 (= cell_8_8 3) (= cell_8_8 4) (= cell_8_8 5) (= cell_8_8 6) (= cell_8_8 7) (= cell_8_8 8) (= cell_8_8 9)))))
(assert
 (let (($x5697 (= cell_9_8 2)))
 (let (($x8679 (= cell_9_8 1)))
 (or $x8679 $x5697 (= cell_9_8 3) (= cell_9_8 4) (= cell_9_8 5) (= cell_9_8 6) (= cell_9_8 7) (= cell_9_8 8) (= cell_9_8 9)))))
(assert
 (let (($x7248 (= cell_1_9 9)))
 (let (($x4788 (= cell_1_9 8)))
 (let (($x429 (= cell_1_9 7)))
 (let (($x3785 (= cell_1_9 6)))
 (let (($x3723 (= cell_1_9 5)))
 (let (($x1207 (= cell_1_9 4)))
 (let (($x5404 (= cell_1_9 3)))
 (let (($x1894 (= cell_1_9 2)))
 (let (($x584 (= cell_1_9 1)))
 (or $x584 $x1894 $x5404 $x1207 $x3723 $x3785 $x429 $x4788 $x7248)))))))))))
(assert
 (let (($x7077 (= cell_2_9 9)))
 (let (($x6353 (= cell_2_9 8)))
 (let (($x8330 (= cell_2_9 7)))
 (let (($x5997 (= cell_2_9 6)))
 (let (($x2789 (= cell_2_9 5)))
 (let (($x7777 (= cell_2_9 4)))
 (let (($x9474 (= cell_2_9 3)))
 (let (($x9393 (= cell_2_9 2)))
 (let (($x5539 (= cell_2_9 1)))
 (or $x5539 $x9393 $x9474 $x7777 $x2789 $x5997 $x8330 $x6353 $x7077)))))))))))
(assert
 (let (($x8723 (= cell_3_9 9)))
 (let (($x795 (= cell_3_9 8)))
 (let (($x50 (= cell_3_9 7)))
 (let (($x3389 (= cell_3_9 6)))
 (let (($x3377 (= cell_3_9 5)))
 (let (($x3501 (= cell_3_9 4)))
 (let (($x9865 (= cell_3_9 3)))
 (let (($x3418 (= cell_3_9 2)))
 (let (($x10258 (= cell_3_9 1)))
 (or $x10258 $x3418 $x9865 $x3501 $x3377 $x3389 $x50 $x795 $x8723)))))))))))
(assert
 (let (($x8002 (= cell_4_9 2)))
 (or (= cell_4_9 1) $x8002 (= cell_4_9 3) (= cell_4_9 4) (= cell_4_9 5) (= cell_4_9 6) (= cell_4_9 7) (= cell_4_9 8) (= cell_4_9 9))))
(assert
 (let (($x1103 (= cell_5_9 9)))
 (let (($x6537 (= cell_5_9 8)))
 (let (($x1443 (= cell_5_9 7)))
 (let (($x9288 (= cell_5_9 6)))
 (let (($x260 (= cell_5_9 5)))
 (let (($x9741 (= cell_5_9 4)))
 (let (($x4493 (= cell_5_9 3)))
 (let (($x6773 (= cell_5_9 2)))
 (let (($x9896 (= cell_5_9 1)))
 (or $x9896 $x6773 $x4493 $x9741 $x260 $x9288 $x1443 $x6537 $x1103)))))))))))
(assert
 (let (($x5375 (= cell_6_9 9)))
 (let (($x2263 (= cell_6_9 8)))
 (let (($x6733 (= cell_6_9 7)))
 (let (($x2151 (= cell_6_9 6)))
 (let (($x2696 (= cell_6_9 5)))
 (let (($x8847 (= cell_6_9 4)))
 (let (($x6846 (= cell_6_9 3)))
 (let (($x9436 (= cell_6_9 2)))
 (let (($x1663 (= cell_6_9 1)))
 (or $x1663 $x9436 $x6846 $x8847 $x2696 $x2151 $x6733 $x2263 $x5375)))))))))))
(assert
 (let (($x3276 (= cell_7_9 1)))
 (or $x3276 (= cell_7_9 2) (= cell_7_9 3) (= cell_7_9 4) (= cell_7_9 5) (= cell_7_9 6) (= cell_7_9 7) (= cell_7_9 8) (= cell_7_9 9))))
(assert
 (let (($x3429 (= cell_8_9 2)))
 (let (($x6023 (= cell_8_9 1)))
 (or $x6023 $x3429 (= cell_8_9 3) (= cell_8_9 4) (= cell_8_9 5) (= cell_8_9 6) (= cell_8_9 7) (= cell_8_9 8) (= cell_8_9 9)))))
(assert
 (let (($x4264 (= cell_9_9 2)))
 (let (($x6959 (= cell_9_9 1)))
 (or $x6959 $x4264 (= cell_9_9 3) (= cell_9_9 4) (= cell_9_9 5) (= cell_9_9 6) (= cell_9_9 7) (= cell_9_9 8) (= cell_9_9 9)))))
(assert
 (and (distinct cell_1_1 cell_1_2 cell_1_3 cell_1_4 cell_1_5 cell_1_6 cell_1_7 cell_1_8 cell_1_9) true))
(assert
 (and (distinct cell_2_1 cell_2_2 cell_2_3 cell_2_4 cell_2_5 cell_2_6 cell_2_7 cell_2_8 cell_2_9) true))
(assert
 (and (distinct cell_3_1 cell_3_2 cell_3_3 cell_3_4 cell_3_5 cell_3_6 cell_3_7 cell_3_8 cell_3_9) true))
(assert
 (and (distinct cell_4_1 cell_4_2 cell_4_3 cell_4_4 cell_4_5 cell_4_6 cell_4_7 cell_4_8 cell_4_9) true))
(assert
 (and (distinct cell_5_1 cell_5_2 cell_5_3 cell_5_4 cell_5_5 cell_5_6 cell_5_7 cell_5_8 cell_5_9) true))
(assert
 (and (distinct cell_6_1 cell_6_2 cell_6_3 cell_6_4 cell_6_5 cell_6_6 cell_6_7 cell_6_8 cell_6_9) true))
(assert
 (and (distinct cell_7_1 cell_7_2 cell_7_3 cell_7_4 cell_7_5 cell_7_6 cell_7_7 cell_7_8 cell_7_9) true))
(assert
 (and (distinct cell_8_1 cell_8_2 cell_8_3 cell_8_4 cell_8_5 cell_8_6 cell_8_7 cell_8_8 cell_8_9) true))
(assert
 (and (distinct cell_9_1 cell_9_2 cell_9_3 cell_9_4 cell_9_5 cell_9_6 cell_9_7 cell_9_8 cell_9_9) true))
(assert
 (and (distinct cell_1_1 cell_2_1 cell_3_1 cell_4_1 cell_5_1 cell_6_1 cell_7_1 cell_8_1 cell_9_1) true))
(assert
 (and (distinct cell_1_2 cell_2_2 cell_3_2 cell_4_2 cell_5_2 cell_6_2 cell_7_2 cell_8_2 cell_9_2) true))
(assert
 (and (distinct cell_1_3 cell_2_3 cell_3_3 cell_4_3 cell_5_3 cell_6_3 cell_7_3 cell_8_3 cell_9_3) true))
(assert
 (and (distinct cell_1_4 cell_2_4 cell_3_4 cell_4_4 cell_5_4 cell_6_4 cell_7_4 cell_8_4 cell_9_4) true))
(assert
 (and (distinct cell_1_5 cell_2_5 cell_3_5 cell_4_5 cell_5_5 cell_6_5 cell_7_5 cell_8_5 cell_9_5) true))
(assert
 (and (distinct cell_1_6 cell_2_6 cell_3_6 cell_4_6 cell_5_6 cell_6_6 cell_7_6 cell_8_6 cell_9_6) true))
(assert
 (and (distinct cell_1_7 cell_2_7 cell_3_7 cell_4_7 cell_5_7 cell_6_7 cell_7_7 cell_8_7 cell_9_7) true))
(assert
 (and (distinct cell_1_8 cell_2_8 cell_3_8 cell_4_8 cell_5_8 cell_6_8 cell_7_8 cell_8_8 cell_9_8) true))
(assert
 (and (distinct cell_1_9 cell_2_9 cell_3_9 cell_4_9 cell_5_9 cell_6_9 cell_7_9 cell_8_9 cell_9_9) true))
(assert
 (and (distinct cell_1_1 cell_1_2 cell_1_3 cell_2_1 cell_2_2 cell_2_3 cell_3_1 cell_3_2 cell_3_3) true))
(assert
 (and (distinct cell_1_4 cell_1_5 cell_1_6 cell_2_4 cell_2_5 cell_2_6 cell_3_4 cell_3_5 cell_3_6) true))
(assert
 (and (distinct cell_1_7 cell_1_8 cell_1_9 cell_2_7 cell_2_8 cell_2_9 cell_3_7 cell_3_8 cell_3_9) true))
(assert
 (and (distinct cell_4_1 cell_4_2 cell_4_3 cell_5_1 cell_5_2 cell_5_3 cell_6_1 cell_6_2 cell_6_3) true))
(assert
 (and (distinct cell_4_4 cell_4_5 cell_4_6 cell_5_4 cell_5_5 cell_5_6 cell_6_4 cell_6_5 cell_6_6) true))
(assert
 (and (distinct cell_4_7 cell_4_8 cell_4_9 cell_5_7 cell_5_8 cell_5_9 cell_6_7 cell_6_8 cell_6_9) true))
(assert
 (and (distinct cell_7_1 cell_7_2 cell_7_3 cell_8_1 cell_8_2 cell_8_3 cell_9_1 cell_9_2 cell_9_3) true))
(assert
 (and (distinct cell_7_4 cell_7_5 cell_7_6 cell_8_4 cell_8_5 cell_8_6 cell_9_4 cell_9_5 cell_9_6) true))
(assert
 (and (distinct cell_7_7 cell_7_8 cell_7_9 cell_8_7 cell_8_8 cell_8_9 cell_9_7 cell_9_8 cell_9_9) true))
(assert
 (let (($x4278 (and (distinct cell_5_9 cell_6_8 cell_7_7 cell_8_6) true)))
 (let (($x7645 (and (distinct cell_2_9 cell_3_8 cell_4_7 cell_5_6 cell_6_5 cell_7_4 cell_8_3 cell_9_2) true)))
 (let (($x3051 (and (distinct cell_1_8 cell_2_7 cell_3_6 cell_4_5 cell_5_4 cell_6_3 cell_7_2 cell_8_1) true)))
 (let (($x8223 (and (distinct cell_1_5 cell_2_4 cell_3_3 cell_4_2) true)))
 (let (($x7308 (and (distinct cell_5_1 cell_6_2 cell_7_3 cell_8_4) true)))
 (let (($x8221 (and (distinct cell_2_1 cell_3_2 cell_4_3 cell_5_4 cell_6_5 cell_7_6 cell_8_7 cell_9_8) true)))
 (let (($x6966 (and (distinct cell_1_2 cell_2_3 cell_3_4 cell_4_5 cell_5_6 cell_6_7 cell_7_8 cell_8_9) true)))
 (let (($x10155 (and (distinct cell_1_5 cell_2_6 cell_3_7 cell_4_8) true)))
 (and $x10155 $x6966 $x8221 $x7308 $x8223 $x3051 $x7645 $x4278))))))))))
(assert
 (= cell_8_2 2))
(check-sat)
